20
25	431	588	8	4
12	556	347	85	96
12	346	468	33	13
48	350	354	92	32
42	460	485	33	10
32	612	636	78	71
11	266	502	23	2
26	558	346	2	85
34	179	703	69	42
28	289	296	0	18
20	579	756	36	78
41	228	342	33	34
48	397	360	47	1
50	81	625	40	68
40	169	565	19	1
47	436	506	87	74
41	312	315	26	12
8	183	730	12	78
37	169	542	41	63
14	264	202	88	23
